114
119
62
62
42
114
46
14
99
49
30
51
12
16
119
121
73
7
29
44
104
1
5
21
82
92
82
57
69
37
94
23
87
23
46
79
99
10
118
98
61
55
56
38
64
64
103
100
81
48
103
67
44
119
111
69
79
74
26
38
59
29
107
24
28
21
28
55
39
117
54
23
114
124
55
14
32
51
75
50
76
8
123
5
110
106
51
54
30
56
100
69
13
53
7
61
91
109
15
89
72
85
26
0
39
48
75
68
96
37
43
26
5
92
80
21
109
64
49
112
122
82
113
43
78
37
66
